NAME: instance_1738
TYPE: TSP
DIMENSION: 20
EDGE_WEIGHT_TYPE: EUC_2D
NODE_COORD_SECTION
0 47.25 41.99
1 47.21 92.91
2 3.77 18.74
3 37.02 20.27
4 17.73 71.53
5 16.74 98.13
6 48.19 53.41
7 1.69 15.58
8 4.29 7.39
9 23.41 64.17
10 22.36 82.53
11 63.18 93.82
12 74.38 83.62
13 65.58 65.78
14 11.32 91.07
15 73.68 14.71
16 32.99 89.73
17 58.75 4.36
18 2.92 82.94
19 54.41 0.42
EOF
